30
5
42020
0
0
53 54 46 42 51
1
0
60 54 47 37 50
2
0
60 53 49 36 52
3
0
51 54 50 38 52
4
0
51 53 46 39 51
5
0
52 50 46 38 52
6
0
56 53 49 38 49
7
0
56 53 48 41 53
8
0
56 54 45 41 52
9
0
54 51 45 38 53
10
0
59 53 45 38 54
11
0
55 51 48 35 52
12
0
50 52 42 35 47
13
0
55 50 44 36 52
14
0
55 56 48 36 50
15
0
57 56 50 39 51
16
0
56 55 49 39 51
17
0
57 52 44 38 52
18
0
57 54 51 39 54
19
0
55 51 50 41 54
20
0
57 53 48 38 55
21
0
55 51 47 37 50
22
0
53 51 45 39 56
23
0
53 57 51 40 50
24
0
59 53 47 36 49
25
0
53 56 49 39 50
26
0
56 53 46 36 53
27
0
56 53 49 39 52
28
0
58 53 47 40 54
29
0
55 51 42 39 52
